/* CONJUNTOS */
set N := 1 2 3 4 5 6 7 8 9 10 11 12 13 14 15 16 17 18 19 20 21 ;

param nombre_instancia := "DRP.dat";


/* PARAMETROS */
param P := 1.9 ;
param R := 10 ;
param c1 := 1 ;
param c2 := 0.2 ;

param : coordx coordy flag :=
1 77 4 0
2 12 21 0
3 72 27 1
4 27 57 0
5 85 20 0
6 13 79 0
7 60 81 0
8 26 23 0
9 60 23 0
10 78 43 0
11 29 50 1
12 18 65 0
13 92 64 0
14 26 41 0
15 60 13 0
16 40 92 0
17 63 64 0
18 63 64 0
19 63 64 0
20 63 64 0
21 63 64 0
;
